197
0 62 183 31 100 92 37 56 175 96 
80 49 3 47 73 135 190 146 177 19 
61 129 128 10 132 137 11 67 116 172 
166 147 141 39 193 103 165 94 114 144 
123 54 169 57 154 164 2 16 149 74 
86 184 63 38 145 93 117 95 97 40 
77 81 107 171 121 22 71 14 174 36 
130 8 50 186 181 88 187 101 196 25 
69 84 158 168 170 108 185 118 139 152 
76 105 30 102 99 79 12 32 23 78 
35 109 85 70 90 89 41 46 29 120 
161 150 112 148 6 21 191 75 44 126 
115 162 167 182 64 106 134 194 13 156 
17 133 7 163 58 4 188 119 28 189 
26 9 159 125 18 173 5 151 143 136 
180 45 33 111 42 65 127 53 98 122 
142 72 110 52 15 160 124 48 157 34 
51 83 68 59 195 178 138 20 66 104 
179 91 60 140 27 43 87 192 176 55 
131 153 1 155 82 113 24 
